200
120 120
1 96 824
2 96 768
3 95 454
4 94 870
5 94 372
6 94 894
7 93 112
8 93 914
9 93 309
10 92 222
11 92 191
12 92 554
13 91 176
14 90 882
15 90 92
16 90 271
17 90 891
18 90 904
19 89 822
20 89 602
21 89 381
22 89 856
23 88 351
24 87 866
25 86 784
26 86 588
27 86 323
28 85 866
29 85 922
30 85 728
31 83 382
32 83 176
33 83 163
34 82 480
35 82 429
36 82 161
37 82 436
38 81 682
39 81 865
40 80 198
41 80 559
42 79 695
43 79 22
44 79 319
45 78 123
46 78 152
47 78 824
48 78 495
49 77 173
50 77 651
51 76 847
52 76 579
53 76 330
54 76 882
55 75 571
56 75 709
57 75 596
58 74 581
59 74 308
60 73 281
61 73 620
62 72 399
63 72 219
64 71 385
65 71 583
66 70 219
67 70 817
68 70 300
69 69 7
70 69 831
71 69 785
72 69 234
73 68 475
74 67 474
75 67 530
76 67 177
77 66 929
78 66 607
79 66 864
80 65 622
81 65 892
82 65 371
83 64 830
84 64 604
85 64 221
86 63 487
87 63 773
88 63 311
89 63 664
90 63 995
91 63 80
92 63 695
93 62 693
94 62 271
95 62 521
96 61 82
97 61 105
98 61 226
99 61 106
100 61 208
101 61 293
102 60 778
103 60 214
104 59 36
105 58 948
106 58 644
107 58 157
108 57 746
109 57 893
110 57 720
111 57 539
112 56 80
113 56 418
114 55 344
115 55 898
116 55 93
117 55 728
118 55 83
119 55 676
120 54 973
121 53 532
122 53 227
123 52 47
124 52 534
125 51 300
126 51 817
127 51 208
128 51 914
129 51 781
130 50 949
131 50 33
132 49 638
133 49 825
134 49 434
135 48 128
136 48 593
137 48 693
138 46 848
139 46 616
140 46 994
141 45 730
142 45 848
143 45 367
144 44 475
145 44 368
146 44 3
147 43 171
148 43 896
149 43 992
150 43 422
151 42 986
152 41 47
153 41 995
154 41 769
155 40 214
156 40 543
157 40 26
158 40 605
159 39 653
160 39 305
161 39 674
162 39 831
163 39 695
164 38 444
165 38 146
166 37 509
167 37 321
168 37 95
169 36 872
170 36 255
171 36 32
172 36 86
173 35 740
174 35 365
175 35 450
176 34 422
177 34 369
178 34 332
179 33 922
180 33 831
181 33 901
182 31 49
183 31 577
184 30 764
185 30 768
186 30 451
187 29 703
188 29 764
189 29 66
190 29 775
191 28 260
192 27 371
193 27 371
194 26 12
195 26 800
196 26 387
197 25 472
198 25 749
199 25 815
200 25 261
